p tw 89 247
0 1
0 2
0 3
0 4
0 9
0 58
1 2
1 3
1 4
1 8
1 19
1 20
2 3
2 4
2 10
3 4
3 11
3 56
4 78
5 6
5 7
5 29
5 30
5 31
5 32
5 33
6 7
6 21
6 22
6 23
7 39
7 40
7 41
7 42
8 9
8 10
8 11
8 19
8 20
9 10
9 11
9 58
10 11
11 56
12 13
12 14
12 15
12 16
12 73
12 80
12 88
13 14
13 15
13 16
13 21
13 42
13 45
13 66
14 15
14 16
14 54
14 67
15 16
15 55
15 63
15 64
15 65
16 29
16 39
16 70
17 18
17 27
18 24
18 76
19 20
19 58
19 59
19 60
19 61
19 62
20 43
21 22
21 23
21 42
21 45
21 66
22 23
22 40
23 41
23 44
24 25
24 26
24 27
24 28
24 76
25 26
25 27
25 28
25 46
25 47
26 27
26 28
26 38
26 77
26 82
27 28
28 57
29 30
29 31
29 32
29 33
29 39
29 70
30 31
30 32
30 33
30 85
31 32
31 33
31 36
31 46
31 82
31 84
31 86
32 33
32 35
32 83
33 34
34 35
34 36
35 36
35 83
36 46
36 82
36 84
36 86
37 38
37 50
37 63
38 77
38 82
39 40
39 41
39 42
39 70
40 41
40 42
41 42
41 44
42 45
42 66
43 44
43 45
44 45
45 66
46 47
46 82
46 84
46 86
47 57
47 76
47 77
48 49
48 50
48 65
48 69
48 87
48 88
49 50
49 64
49 68
49 81
50 63
51 52
51 53
51 59
52 53
52 62
52 71
52 72
52 73
52 74
53 61
53 75
54 55
54 67
55 63
55 64
55 65
56 78
57 76
57 77
58 59
58 60
58 61
58 62
59 60
59 61
59 62
60 61
60 62
60 79
60 80
61 62
61 75
62 71
62 72
62 73
62 74
63 64
63 65
64 65
64 68
64 81
65 69
65 87
65 88
66 67
68 69
68 81
69 87
69 88
70 85
70 86
71 72
71 73
71 74
71 75
72 73
72 74
72 79
73 74
73 80
73 88
74 81
74 87
76 77
77 82
79 80
80 88
81 87
82 84
82 86
83 84
84 86
85 86
87 88
